c 
c G(k,n,p) graph
c graph gen seed     : 8196342
c number of vertices : 50
c max number of edges: 625
c number of classes  : 2
c edge density       : 0.100000
c edge probability   : 0.200000
c data structure     : sparse
c
c           Graph Stats
c number of vertices  : 50
c nonisolated vertices: 50
c number of edges     : 126
c edge density        : 0.102857
c max degree          : 10
c avg degree          : 5.04
c min degree          : 1
p col 50 126
e 1 50
e 1 45
e 1 29
e 1 24
e 1 18
e 2 42
e 2 34
e 2 31
e 2 11
e 2 8
e 3 27
e 4 50
e 4 44
e 4 19
e 4 10
e 4 5
e 5 49
e 5 43
e 5 35
e 5 15
e 6 40
e 6 30
e 6 22
e 6 20
e 7 49
e 7 48
e 7 47
e 7 42
e 7 30
e 7 25
e 7 23
e 7 15
e 8 33
e 8 29
e 8 28
e 8 26
e 9 41
e 9 32
e 9 27
e 9 24
e 9 21
e 9 18
e 10 36
e 10 11
e 11 45
e 11 32
e 11 28
e 11 26
e 12 42
e 12 39
e 12 35
e 12 23
e 12 20
e 13 50
e 13 46
e 13 45
e 13 41
e 13 29
e 13 19
e 14 50
e 14 24
e 14 19
e 15 50
e 15 46
e 15 45
e 15 44
e 15 32
e 15 27
e 16 27
e 16 21
e 17 42
e 17 36
e 18 47
e 18 40
e 18 39
e 18 23
e 19 42
e 19 35
e 19 23
e 20 50
e 20 24
e 21 48
e 21 42
e 21 25
e 22 50
e 22 32
e 23 46
e 23 37
e 23 27
e 24 42
e 24 40
e 24 31
e 25 50
e 25 37
e 25 29
e 26 43
e 26 38
e 27 49
e 27 47
e 27 39
e 27 31
e 28 49
e 28 48
e 28 34
e 29 35
e 29 31
e 30 41
e 30 33
e 32 48
e 32 35
e 33 47
e 33 43
e 33 42
e 34 44
e 37 48
e 37 42
e 39 45
e 41 43
e 42 50
e 43 50
e 43 46
e 43 45
e 44 49
e 44 48
e 45 48
e 45 47
